c File: flat50_3_0.col
c
c SOURCE: Joseph Culberson (joe@cs.ualberta.ca)
c DESCRIPTION: Quasi-random coloring problem
c              generated with flatness = 0
c                             probability = 0.139
c                             known coloring = 3
c                             random seed = 1964
c              Creation Date:  Tue Jun  9 12:22:15 1998
c Maximum degree = 8 Minimum degree = 2
c p edge 50 115
c cnf created by edge2cnf
p cnf 150 545
-1 -2 0
-1 -3 0
-2 -3 0
1 2 3 0
-4 -5 0
-4 -6 0
-5 -6 0
4 5 6 0
-7 -8 0
-7 -9 0
-8 -9 0
7 8 9 0
-10 -11 0
-10 -12 0
-11 -12 0
10 11 12 0
-13 -14 0
-13 -15 0
-14 -15 0
13 14 15 0
-16 -17 0
-16 -18 0
-17 -18 0
16 17 18 0
-19 -20 0
-19 -21 0
-20 -21 0
19 20 21 0
-22 -23 0
-22 -24 0
-23 -24 0
22 23 24 0
-25 -26 0
-25 -27 0
-26 -27 0
25 26 27 0
-28 -29 0
-28 -30 0
-29 -30 0
28 29 30 0
-31 -32 0
-31 -33 0
-32 -33 0
31 32 33 0
-34 -35 0
-34 -36 0
-35 -36 0
34 35 36 0
-37 -38 0
-37 -39 0
-38 -39 0
37 38 39 0
-40 -41 0
-40 -42 0
-41 -42 0
40 41 42 0
-43 -44 0
-43 -45 0
-44 -45 0
43 44 45 0
-46 -47 0
-46 -48 0
-47 -48 0
46 47 48 0
-49 -50 0
-49 -51 0
-50 -51 0
49 50 51 0
-52 -53 0
-52 -54 0
-53 -54 0
52 53 54 0
-55 -56 0
-55 -57 0
-56 -57 0
55 56 57 0
-58 -59 0
-58 -60 0
-59 -60 0
58 59 60 0
-61 -62 0
-61 -63 0
-62 -63 0
61 62 63 0
-64 -65 0
-64 -66 0
-65 -66 0
64 65 66 0
-67 -68 0
-67 -69 0
-68 -69 0
67 68 69 0
-70 -71 0
-70 -72 0
-71 -72 0
70 71 72 0
-73 -74 0
-73 -75 0
-74 -75 0
73 74 75 0
-76 -77 0
-76 -78 0
-77 -78 0
76 77 78 0
-79 -80 0
-79 -81 0
-80 -81 0
79 80 81 0
-82 -83 0
-82 -84 0
-83 -84 0
82 83 84 0
-85 -86 0
-85 -87 0
-86 -87 0
85 86 87 0
-88 -89 0
-88 -90 0
-89 -90 0
88 89 90 0
-91 -92 0
-91 -93 0
-92 -93 0
91 92 93 0
-94 -95 0
-94 -96 0
-95 -96 0
94 95 96 0
-97 -98 0
-97 -99 0
-98 -99 0
97 98 99 0
-100 -101 0
-100 -102 0
-101 -102 0
100 101 102 0
-103 -104 0
-103 -105 0
-104 -105 0
103 104 105 0
-106 -107 0
-106 -108 0
-107 -108 0
106 107 108 0
-109 -110 0
-109 -111 0
-110 -111 0
109 110 111 0
-112 -113 0
-112 -114 0
-113 -114 0
112 113 114 0
-115 -116 0
-115 -117 0
-116 -117 0
115 116 117 0
-118 -119 0
-118 -120 0
-119 -120 0
118 119 120 0
-121 -122 0
-121 -123 0
-122 -123 0
121 122 123 0
-124 -125 0
-124 -126 0
-125 -126 0
124 125 126 0
-127 -128 0
-127 -129 0
-128 -129 0
127 128 129 0
-130 -131 0
-130 -132 0
-131 -132 0
130 131 132 0
-133 -134 0
-133 -135 0
-134 -135 0
133 134 135 0
-136 -137 0
-136 -138 0
-137 -138 0
136 137 138 0
-139 -140 0
-139 -141 0
-140 -141 0
139 140 141 0
-142 -143 0
-142 -144 0
-143 -144 0
142 143 144 0
-145 -146 0
-145 -147 0
-146 -147 0
145 146 147 0
-148 -149 0
-148 -150 0
-149 -150 0
148 149 150 0
-61 -1 0
-62 -2 0
-63 -3 0
-70 -1 0
-71 -2 0
-72 -3 0
-82 -1 0
-83 -2 0
-84 -3 0
-124 -1 0
-125 -2 0
-126 -3 0
-82 -4 0
-83 -5 0
-84 -6 0
-85 -4 0
-86 -5 0
-87 -6 0
-88 -4 0
-89 -5 0
-90 -6 0
-106 -4 0
-107 -5 0
-108 -6 0
-115 -4 0
-116 -5 0
-117 -6 0
-67 -7 0
-68 -8 0
-69 -9 0
-70 -7 0
-71 -8 0
-72 -9 0
-73 -7 0
-74 -8 0
-75 -9 0
-106 -7 0
-107 -8 0
-108 -9 0
-109 -7 0
-110 -8 0
-111 -9 0
-124 -7 0
-125 -8 0
-126 -9 0
-76 -10 0
-77 -11 0
-78 -12 0
-103 -10 0
-104 -11 0
-105 -12 0
-52 -13 0
-53 -14 0
-54 -15 0
-61 -13 0
-62 -14 0
-63 -15 0
-91 -13 0
-92 -14 0
-93 -15 0
-58 -16 0
-59 -17 0
-60 -18 0
-61 -16 0
-62 -17 0
-63 -18 0
-67 -16 0
-68 -17 0
-69 -18 0
-136 -16 0
-137 -17 0
-138 -18 0
-139 -16 0
-140 -17 0
-141 -18 0
-142 -16 0
-143 -17 0
-144 -18 0
-58 -19 0
-59 -20 0
-60 -21 0
-91 -19 0
-92 -20 0
-93 -21 0
-94 -19 0
-95 -20 0
-96 -21 0
-115 -19 0
-116 -20 0
-117 -21 0
-118 -19 0
-119 -20 0
-120 -21 0
-139 -19 0
-140 -20 0
-141 -21 0
-67 -22 0
-68 -23 0
-69 -24 0
-76 -22 0
-77 -23 0
-78 -24 0
-103 -22 0
-104 -23 0
-105 -24 0
-121 -22 0
-122 -23 0
-123 -24 0
-52 -25 0
-53 -26 0
-54 -27 0
-85 -25 0
-86 -26 0
-87 -27 0
-97 -25 0
-98 -26 0
-99 -27 0
-100 -25 0
-101 -26 0
-102 -27 0
-127 -25 0
-128 -26 0
-129 -27 0
-130 -25 0
-131 -26 0
-132 -27 0
-139 -25 0
-140 -26 0
-141 -27 0
-58 -28 0
-59 -29 0
-60 -30 0
-88 -28 0
-89 -29 0
-90 -30 0
-103 -28 0
-104 -29 0
-105 -30 0
-106 -28 0
-107 -29 0
-108 -30 0
-142 -28 0
-143 -29 0
-144 -30 0
-67 -31 0
-68 -32 0
-69 -33 0
-112 -31 0
-113 -32 0
-114 -33 0
-115 -31 0
-116 -32 0
-117 -33 0
-52 -34 0
-53 -35 0
-54 -36 0
-55 -34 0
-56 -35 0
-57 -36 0
-94 -34 0
-95 -35 0
-96 -36 0
-100 -34 0
-101 -35 0
-102 -36 0
-103 -34 0
-104 -35 0
-105 -36 0
-115 -34 0
-116 -35 0
-117 -36 0
-142 -34 0
-143 -35 0
-144 -36 0
-145 -34 0
-146 -35 0
-147 -36 0
-79 -37 0
-80 -38 0
-81 -39 0
-145 -37 0
-146 -38 0
-147 -39 0
-58 -40 0
-59 -41 0
-60 -42 0
-76 -40 0
-77 -41 0
-78 -42 0
-94 -40 0
-95 -41 0
-96 -42 0
-112 -40 0
-113 -41 0
-114 -42 0
-118 -40 0
-119 -41 0
-120 -42 0
-124 -40 0
-125 -41 0
-126 -42 0
-94 -43 0
-95 -44 0
-96 -45 0
-118 -43 0
-119 -44 0
-120 -45 0
-127 -43 0
-128 -44 0
-129 -45 0
-148 -43 0
-149 -44 0
-150 -45 0
-82 -46 0
-83 -47 0
-84 -48 0
-85 -46 0
-86 -47 0
-87 -48 0
-112 -46 0
-113 -47 0
-114 -48 0
-145 -46 0
-146 -47 0
-147 -48 0
-55 -49 0
-56 -50 0
-57 -51 0
-133 -49 0
-134 -50 0
-135 -51 0
-142 -49 0
-143 -50 0
-144 -51 0
-112 -52 0
-113 -53 0
-114 -54 0
-139 -52 0
-140 -53 0
-141 -54 0
-106 -55 0
-107 -56 0
-108 -57 0
-133 -55 0
-134 -56 0
-135 -57 0
-145 -55 0
-146 -56 0
-147 -57 0
-148 -55 0
-149 -56 0
-150 -57 0
-103 -58 0
-104 -59 0
-105 -60 0
-115 -58 0
-116 -59 0
-117 -60 0
-103 -61 0
-104 -62 0
-105 -63 0
-118 -64 0
-119 -65 0
-120 -66 0
-130 -64 0
-131 -65 0
-132 -66 0
-145 -64 0
-146 -65 0
-147 -66 0
-124 -67 0
-125 -68 0
-126 -69 0
-109 -70 0
-110 -71 0
-111 -72 0
-115 -70 0
-116 -71 0
-117 -72 0
-118 -70 0
-119 -71 0
-120 -72 0
-148 -70 0
-149 -71 0
-150 -72 0
-136 -73 0
-137 -74 0
-138 -75 0
-103 -76 0
-104 -77 0
-105 -78 0
-124 -76 0
-125 -77 0
-126 -78 0
-133 -76 0
-134 -77 0
-135 -78 0
-112 -79 0
-113 -80 0
-114 -81 0
-115 -79 0
-116 -80 0
-117 -81 0
-118 -82 0
-119 -83 0
-120 -84 0
-139 -82 0
-140 -83 0
-141 -84 0
-148 -82 0
-149 -83 0
-150 -84 0
-106 -85 0
-107 -86 0
-108 -87 0
-109 -85 0
-110 -86 0
-111 -87 0
-112 -85 0
-113 -86 0
-114 -87 0
-127 -88 0
-128 -89 0
-129 -90 0
-130 -88 0
-131 -89 0
-132 -90 0
-142 -88 0
-143 -89 0
-144 -90 0
-112 -91 0
-113 -92 0
-114 -93 0
-115 -91 0
-116 -92 0
-117 -93 0
-103 -94 0
-104 -95 0
-105 -96 0
-121 -97 0
-122 -98 0
-123 -99 0
-142 -100 0
-143 -101 0
-144 -102 0
